\ Model Iteration3
\ LP format - for model browsing. Use MPS format to capture full model detail.
Minimize
  58 t_0_117 + 58 t_1_117 + 54 t_2_117 + 67 t_3_117 + 65 t_4_117
   + 40 t_5_117 + 66 t_6_117 + 60 t_7_117 + 40 t_8_117 + 69 t_9_117
   + 59 t_10_117 + 62 t_11_117 + 41 t_12_117 + 58 t_13_117 + 48 t_14_117
   + 67 t_15_117 + 49 t_16_117 + 59 t_17_117 + 127 t_18_117 + 154 t_19_117
   + 69 t_20_117 + 76 t_21_117 + 51 t_22_117 + 74 t_23_117 + 59 t_24_117
   + 65 t_25_117 + 64 t_26_117 + 51 t_27_117 + 60 t_28_117 + 68 t_29_117
   + 65 t_30_117 + 43 t_31_117 + 52 t_32_117 + 63 t_33_117 + 50 t_34_117
   + 65 t_35_117 + 58 t_36_117 + 56 t_37_117 + 84 t_38_117 + 61 t_39_117
   + 53 t_40_117 + 50 t_41_117 + 71 t_42_117 + 64 t_43_117 + 56 t_44_117
   + 70 t_45_117 + 67 t_46_117 + 52 t_47_117 + 49 t_48_117 + 123 t_49_117
   + 45 t_50_117 + 54 t_51_117 + 159 t_52_117 + 43 t_53_117 + 54 t_54_117
   + 56 t_55_117 + 70 t_56_117 + 147 t_57_117 + 131 t_58_117 + 134 t_59_117
   + 101 t_60_117 + 135 t_61_117 + 54 t_62_117 + 66 t_63_117 + 57 t_64_117
   + 162 t_65_117 + 135 t_66_117 + 124 t_67_117 + 133 t_68_117
   + 73 t_69_117 + 60 t_70_117 + 154 t_71_117 + 77 t_72_117 + 70 t_73_117
   + 72 t_74_117 + 61 t_75_117 + 56 t_76_117 + 115 t_77_117 + 157 t_78_117
   + 162 t_79_117 + 58 t_80_117 + 56 t_81_117 + 58 t_82_117 + 76 t_83_117
   + 123 t_84_117 + 62 t_85_117 + 45 t_86_117 + 63 t_87_117 + 82 t_88_117
   + 52 t_89_117 + 62 t_90_117 + 173 t_91_117 + 40 t_92_117 + 55 t_93_117
   + 262 t_94_117 + 289 t_95_117 + 138 t_96_117 + 211 t_97_117
   + 212 t_98_117 + 239 t_99_117 + 132 t_100_117 + 250 t_101_117
   + 248 t_102_117 + 188 t_103_117 + 228 t_104_117 + 222 t_105_117
   + 254 t_106_117 + 247 t_107_117 + 277 t_108_117 + 198 t_109_117
   + 225 t_110_117 + 136 t_111_117 + 217 t_112_117 + 215 t_113_117
   + 307 t_114_117 + 308 t_115_117 + 335 t_116_117 + 93.12 t_18_19
   - 116.72 t_81_106 - 116.64 t_90_115 + 45.82 t_0_1 + 42.16 t_0_6
   + 35.8 t_0_7 + 36.92 t_0_11 + 38.02 t_1_2 + 35.25 t_1_4 + 16.95 t_2_4
   + 13.74 t_2_6 + 37.2 t_2_8 + 13.29 t_2_10 + 31.06 t_2_11 + 47 t_3_8
   + 53.2 t_3_9 + 41.8 t_4_1 + 56.9 t_4_2 + 60.6 t_4_5 + 42.8 t_4_7
   + 54.2 t_4_8 + 22.02 t_5_0 + 9.84 t_5_1 + 24.4 t_5_4 + 31.72 t_5_9
   + 25.74 t_5_11 + 53.82 t_6_0 + 35.26 t_6_1 + 34.68 t_6_2 + 42.6 t_6_4
   + 56 t_6_8 + 36.8 t_7_0 + 43.18 t_7_1 + 46.5 t_7_2 + 44.59 t_7_3
   + 48 t_7_8 + 16.8 t_8_0 + 13.6 t_8_5 + 55.08 t_9_1 + 53.34 t_9_2
   + 22.77 t_9_3 + 54.6 t_9_5 + 50.4 t_9_7 + 45.08 t_10_1 + 24.16 t_10_3
   + 24.02 t_10_6 + 50 t_10_7 + 36.68 t_10_11 + 30.14 t_11_2 + 49.94 t_11_3
   + 28.85 t_11_4 + 32.6 t_11_7 + 35.78 t_11_9 + 27.08 t_12_13
   + 18.92 t_12_14 + 12.86 t_12_15 + 44.88 t_13_12 + 17.88 t_13_17
   + 29.55 t_14_12 + 38.72 t_14_13 + 11.42 t_14_17 + 49.6 t_15_13
   + 51.66 t_15_17 + 49.16 t_17_12 + 48.56 t_17_13 + 30.19 t_17_15
   + 100.66 t_19_18 + 28.72 t_20_21 + 22.38 t_20_23 + 53.05 t_21_22
   + 56.02 t_21_23 + 4.77 t_22_20 + 22.88 t_22_21 + 4.38 t_22_23
   + 56.06 t_23_20 + 27.64 t_23_21 + 57.17 t_23_22 + 27.64 t_24_26
   + 21.8 t_24_28 + 52.55 t_24_31 + 19.31 t_24_33 + 28 t_24_34
   + 27.24 t_25_24 + 38 t_25_28 + 45.5 t_25_30 + 30.16 t_25_32 + 40 t_25_34
   + 31.5 t_26_25 + 50.74 t_26_27 + 35.44 t_26_29 + 58.41 t_26_31
   + 10.8 t_27_28 + 34.68 t_27_29 + 12 t_27_30 + 41.55 t_27_33 + 39 t_27_34
   + 7.45 t_27_35 + 14.5 t_28_25 + 50.4 t_28_26 + 44.19 t_28_27
   + 55.61 t_29_24 + 46.88 t_29_26 + 39.8 t_29_28 + 57.6 t_29_30
   + 61.55 t_29_31 + 51.62 t_29_33 + 54.35 t_29_35 + 47.3 t_30_24
   + 38.6 t_30_28 + 20.12 t_30_29 + 57.26 t_30_31 + 55 t_30_34
   + 36.4 t_30_35 + 17.04 t_31_24 + 19.54 t_31_27 + 16.8 t_32_26
   + 40.44 t_32_29 + 42.11 t_32_31 + 14.2 t_32_33 + 35.1 t_32_35
   + 37.04 t_33_24 + 50.65 t_33_25 + 39.6 t_33_28 + 24 t_33_30
   + 41.07 t_33_31 + 37 t_33_32 + 38.95 t_34_25 + 20.08 t_34_29
   + 8.4 t_34_30 + 43.76 t_34_32 + 24.8 t_34_33 + 36.44 t_35_27
   + 18.76 t_35_29 + 55.11 t_35_31 + 36.72 t_36_37 + 35.03 t_39_40
   + 23.37 t_39_42 + 23 t_40_41 + 45.19 t_40_42 + 27.74 t_41_40
   + 54.36 t_42_43 + 37.09 t_44_39 + 30.4 t_44_43 + 33.15 t_45_46
   + 27.99 t_47_48 + 46.26 t_54_53 + 10.5 t_55_56 + 95.91 t_57_58
   + 98.66 t_58_57 + 59.73 t_63_64 + 66.8 t_66_67 + 48.32 t_70_69
   + 60.9 t_72_73 + 61.5 t_74_73 + 36.16 t_82_81 + 31.4 t_82_83
   + 55.7 t_83_80 + 46.32 t_83_81 + 51.64 t_83_82 + 37.7 t_85_86
   + 22 t_87_88 + 35 t_93_92 + 220.36 t_106_80 + 203.08 t_106_83
   + 285.06 t_115_90
Subject To
 capacity_0: t_0_117 + t_0_1 + t_0_6 + t_0_7 + t_0_11 - 0.31 t_5_0
   - 0.21 t_6_0 - 0.4 t_7_0 - 0.4 t_8_0 >= 75
 capacity_1: t_1_117 - 0.21 t_0_1 + t_1_2 + t_1_4 - 0.4 t_4_1 - 0.52 t_5_1
   - 0.53 t_6_1 - 0.29 t_7_1 - 0.24 t_9_1 - 0.24 t_10_1 >= 12
 capacity_2: t_2_117 - 0.37 t_1_2 + t_2_4 + t_2_6 + t_2_8 + t_2_10 + t_2_11
   - 0.15 t_4_2 - 0.58 t_6_2 - 0.25 t_7_2 - 0.29 t_9_2 - 0.59 t_11_2
   >= 187
 capacity_3: t_3_117 + t_3_8 + t_3_9 - 0.23 t_7_3 - 0.69 t_9_3
   - 0.52 t_10_3 - 0.18 t_11_3 >= -27
 capacity_4: t_4_117 - 0.35 t_1_4 - 0.57 t_2_4 + t_4_1 + t_4_2 + t_4_5
   + t_4_7 + t_4_8 - 0.24 t_5_4 - 0.36 t_6_4 - 0.51 t_11_4 >= -15
 capacity_5: t_5_117 - 0.11 t_4_5 + t_5_0 + t_5_1 + t_5_4 + t_5_9 + t_5_11
   - 0.66 t_8_5 - 0.36 t_9_5 >= 131
 capacity_6: t_6_117 - 0.24 t_0_6 - 0.61 t_2_6 + t_6_0 + t_6_1 + t_6_2
   + t_6_4 + t_6_8 - 0.53 t_10_6 >= -141
 capacity_7: t_7_117 - 0.37 t_0_7 - 0.37 t_4_7 + t_7_0 + t_7_1 + t_7_2
   + t_7_3 + t_7_8 - 0.31 t_9_7 - 0.15 t_10_7 - 0.49 t_11_7 >= 39
 capacity_8: t_8_117 - 0.42 t_2_8 - 0.5 t_3_8 - 0.27 t_4_8 - 0.25 t_6_8
   - 0.3 t_7_8 + t_8_0 + t_8_5 >= -23
 capacity_9: t_9_117 - 0.2 t_3_9 - 0.12 t_5_9 + t_9_1 + t_9_2 + t_9_3
   + t_9_5 + t_9_7 - 0.38 t_11_9 >= -96
 capacity_10: t_10_117 - 0.69 t_2_10 + t_10_1 + t_10_3 + t_10_6 + t_10_7
   + t_10_11 >= -34
 capacity_11: t_11_117 - 0.34 t_0_11 - 0.37 t_2_11 - 0.23 t_5_11
   - 0.36 t_10_11 + t_11_2 + t_11_3 + t_11_4 + t_11_7 + t_11_9 >= 19
 capacity_12: t_12_117 + t_12_13 + t_12_14 + t_12_15 - 0.32 t_13_12
   - 0.45 t_14_12 - 0.24 t_17_12 >= -21
 capacity_13: t_13_117 - 0.24 t_12_13 + t_13_12 + t_13_17 - 0.16 t_14_13
   - 0.3 t_15_13 - 0.18 t_17_13 >= -23
 capacity_14: t_14_117 - 0.46 t_12_14 + t_14_12 + t_14_13 + t_14_17 >= 116
 capacity_15: t_15_117 - 0.42 t_12_15 + t_15_13 + t_15_17 - 0.43 t_17_15
   >= 97
 capacity_16: t_16_117 >= -120
 capacity_17: t_17_117 - 0.68 t_13_17 - 0.62 t_14_17 - 0.26 t_15_17
   + t_17_12 + t_17_13 + t_17_15 >= -30
 capacity_18: t_18_117 + t_94_117 + t_95_117 + t_18_19 - 0.42 t_19_18
   >= 802
 capacity_19: t_19_117 - 0.22 t_18_19 + t_19_18 >= 62
 capacity_20: t_20_117 + t_20_21 + t_20_23 - 0.67 t_22_20 - 0.26 t_23_20
   >= 77
 capacity_21: t_21_117 - 0.53 t_20_21 + t_21_22 + t_21_23 - 0.37 t_22_21
   - 0.61 t_23_21 >= 115
 capacity_22: t_22_117 - 0.45 t_21_22 + t_22_20 + t_22_21 + t_22_23
   - 0.33 t_23_22 >= -84
 capacity_23: t_23_117 - 0.63 t_20_23 - 0.27 t_21_23 - 0.63 t_22_23
   + t_23_20 + t_23_21 + t_23_22 >= 37
 capacity_24: t_24_117 + t_24_26 + t_24_28 + t_24_31 + t_24_33 + t_24_34
   - 0.64 t_25_24 - 0.21 t_29_24 - 0.3 t_30_24 - 0.44 t_31_24
   - 0.44 t_33_24 >= 95
 capacity_25: t_25_117 + t_25_24 + t_25_28 + t_25_30 + t_25_32 + t_25_34
   - 0.5 t_26_25 - 0.7 t_28_25 - 0.19 t_33_25 - 0.17 t_34_25 >= 73
 capacity_26: t_26_117 - 0.49 t_24_26 + t_26_25 + t_26_27 + t_26_29
   + t_26_31 - 0.15 t_28_26 - 0.33 t_29_26 - 0.55 t_32_26 >= 49
 capacity_27: t_27_117 - 0.26 t_26_27 + t_27_28 + t_27_29 + t_27_30
   + t_27_33 + t_27_34 + t_27_35 - 0.31 t_28_27 - 0.46 t_31_27
   - 0.56 t_35_27 >= 94
 capacity_28: t_28_117 - 0.62 t_24_28 - 0.45 t_25_28 - 0.67 t_27_28
   + t_28_25 + t_28_26 + t_28_27 - 0.47 t_29_28 - 0.44 t_30_28
   - 0.39 t_33_28 >= -35
 capacity_29: t_29_117 - 0.42 t_26_29 - 0.24 t_27_29 + t_29_24 + t_29_26
   + t_29_28 + t_29_30 + t_29_31 + t_29_33 + t_29_35 - 0.66 t_30_29
   - 0.17 t_32_29 - 0.44 t_34_29 - 0.68 t_35_29 >= 106
 capacity_30: t_30_117 - 0.3 t_25_30 - 0.6 t_27_30 - 0.16 t_29_30 + t_30_24
   + t_30_28 + t_30_29 + t_30_31 + t_30_34 + t_30_35 - 0.6 t_33_30
   - 0.64 t_34_30 >= 11
 capacity_31: t_31_117 - 0.15 t_24_31 - 0.13 t_26_31 - 0.15 t_29_31
   - 0.18 t_30_31 + t_31_24 + t_31_27 - 0.23 t_32_31 - 0.51 t_33_31
   - 0.23 t_35_31 >= -136
 capacity_32: t_32_117 - 0.67 t_25_32 + t_32_26 + t_32_29 + t_32_31
   + t_32_33 + t_32_35 - 0.5 t_33_32 - 0.12 t_34_32 >= -29
 capacity_33: t_33_117 - 0.63 t_24_33 - 0.15 t_27_33 - 0.26 t_29_33
   - 0.6 t_32_33 + t_33_24 + t_33_25 + t_33_28 + t_33_30 + t_33_31
   + t_33_32 - 0.4 t_34_33 >= -133
 capacity_34: t_34_117 - 0.62 t_24_34 - 0.5 t_25_34 - 0.24 t_27_34
   - 0.2 t_30_34 + t_34_25 + t_34_29 + t_34_30 + t_34_32 + t_34_33 >= 39
 capacity_35: t_35_117 - 0.67 t_27_35 - 0.21 t_29_35 - 0.44 t_30_35
   - 0.26 t_32_35 + t_35_27 + t_35_29 + t_35_31 >= -9
 capacity_36: t_36_117 + t_36_37 >= -145
 capacity_37: t_37_117 - 0.38 t_36_37 >= 264
 capacity_38: t_38_117 + t_96_117 >= 231
 capacity_39: t_39_117 + t_39_40 + t_39_42 - 0.31 t_44_39 >= -15
 capacity_40: t_40_117 - 0.49 t_39_40 + t_40_41 + t_40_42 - 0.42 t_41_40
   >= -79
 capacity_41: t_41_117 - 0.6 t_40_41 + t_41_40 >= -114
 capacity_42: t_42_117 - 0.53 t_39_42 - 0.11 t_40_42 + t_42_43 >= 46
 capacity_43: t_43_117 - 0.26 t_42_43 - 0.4 t_44_43 >= 151
 capacity_44: t_44_117 + t_44_39 + t_44_43 >= 29
 capacity_45: t_45_117 + t_45_46 >= -59
 capacity_46: t_46_117 - 0.55 t_45_46 >= 178
 capacity_47: t_47_117 + t_47_48 >= 218
 capacity_48: t_48_117 - 0.49 t_47_48 >= -68
 capacity_49: t_49_117 >= 29
 capacity_50: t_50_117 >= 144
 capacity_51: t_51_117 >= 6
 capacity_52: t_52_117 >= 18
 capacity_53: t_53_117 - 0.18 t_54_53 >= 147
 capacity_54: t_54_117 + t_54_53 >= 177
 capacity_55: t_55_117 + t_55_56 >= 16
 capacity_56: t_56_117 - 0.65 t_55_56 >= 152
 capacity_57: t_57_117 + t_57_58 - 0.22 t_58_57 >= -109
 capacity_58: t_58_117 + t_106_117 - 0.68 t_81_106 - 0.39 t_57_58 + t_58_57
   + t_106_80 + t_106_83 >= 329
 capacity_59: t_59_117 + t_97_117 + t_114_117 >= 603
 capacity_60: t_60_117 >= 29
 capacity_61: t_61_117 + t_94_117 + t_98_117 + t_109_117 + t_115_117
   - 0.58 t_90_115 + t_115_90 >= 790
 capacity_62: t_62_117 + t_96_117 + t_111_117 >= 216
 capacity_63: t_63_117 + t_104_117 + t_63_64 >= 268
 capacity_64: t_64_117 - 0.11 t_63_64 >= 47
 capacity_65: t_65_117 + t_95_117 + t_99_117 + t_110_117 + t_116_117
   >= 1163
 capacity_66: t_66_117 + t_101_117 + t_112_117 + t_66_67 >= 293
 capacity_67: t_67_117 + t_107_117 - 0.55 t_66_67 >= 85
 capacity_68: t_68_117 + t_102_117 + t_113_117 >= 141
 capacity_69: t_69_117 + t_103_117 - 0.16 t_70_69 >= 22
 capacity_70: t_70_117 + t_100_117 + t_105_117 + t_70_69 >= 81
 capacity_71: t_71_117 + t_108_117 >= 149
 capacity_72: t_72_117 + t_97_117 + t_98_117 + t_99_117 + t_72_73 >= 423
 capacity_73: t_73_117 - 0.23 t_72_73 - 0.15 t_74_73 >= 111
 capacity_74: t_74_117 + t_100_117 + t_74_73 >= 33
 capacity_75: t_75_117 >= 306
 capacity_76: t_76_117 >= 18
 capacity_77: t_77_117 + t_101_117 + t_102_117 + t_103_117 >= 406
 capacity_78: t_78_117 >= -10
 capacity_79: t_79_117 + t_104_117 + t_105_117 >= 236
 capacity_80: t_80_117 - 0.35 t_83_80 - 0.58 t_106_80 >= 40
 capacity_81: t_81_117 + t_81_106 - 0.39 t_82_81 - 0.53 t_83_81 >= -51
 capacity_82: t_82_117 + t_82_81 + t_82_83 - 0.42 t_83_82 >= 68
 capacity_83: t_83_117 - 0.35 t_82_83 + t_83_80 + t_83_81 + t_83_82
   - 0.67 t_106_83 >= -83
 capacity_84: t_84_117 + t_106_117 + t_107_117 + t_108_117 - 0.68 t_81_106
   + t_106_80 + t_106_83 >= 420
 capacity_85: t_85_117 + t_85_86 >= 24
 capacity_86: t_86_117 - 0.54 t_85_86 >= 96
 capacity_87: t_87_117 + t_109_117 + t_110_117 + t_87_88 >= 30
 capacity_88: t_88_117 + t_111_117 + t_112_117 + t_113_117 - 0.5 t_87_88
   >= 110
 capacity_89: t_89_117 >= 2
 capacity_90: t_90_117 + t_90_115 - 0.37 t_115_90 >= -67
 capacity_91: t_91_117 + t_114_117 + t_115_117 + t_116_117 - 0.58 t_90_115
   + t_115_90 >= 1207
 capacity_92: t_92_117 - 0.5 t_93_92 >= 88
 capacity_93: t_93_117 + t_93_92 >= 32
 demand_0: t_0_117 + t_0_1 + t_0_6 + t_0_7 + t_0_11 <= 145
 demand_1: t_1_117 + t_1_2 + t_1_4 <= 82
 demand_2: t_2_117 + t_2_4 + t_2_6 + t_2_8 + t_2_10 + t_2_11 <= 257
 demand_3: t_3_117 + t_3_8 + t_3_9 <= 43
 demand_4: t_4_117 + t_4_1 + t_4_2 + t_4_5 + t_4_7 + t_4_8 <= 55
 demand_5: t_5_117 + t_5_0 + t_5_1 + t_5_4 + t_5_9 + t_5_11 <= 201
 demand_6: t_6_117 + t_6_0 + t_6_1 + t_6_2 + t_6_4 + t_6_8 <= 9
 demand_7: t_7_117 + t_7_0 + t_7_1 + t_7_2 + t_7_3 + t_7_8 <= 189
 demand_8: t_8_117 + t_8_0 + t_8_5 <= 127
 demand_9: t_9_117 + t_9_1 + t_9_2 + t_9_3 + t_9_5 + t_9_7 <= 54
 demand_10: t_10_117 + t_10_1 + t_10_3 + t_10_6 + t_10_7 + t_10_11 <= 116
 demand_11: t_11_117 + t_11_2 + t_11_3 + t_11_4 + t_11_7 + t_11_9 <= 169
 demand_12: t_12_117 + t_12_13 + t_12_14 + t_12_15 <= 129
 demand_13: t_13_117 + t_13_12 + t_13_17 <= 127
 demand_14: t_14_117 + t_14_12 + t_14_13 + t_14_17 <= 266
 demand_15: t_15_117 + t_15_13 + t_15_17 <= 247
 demand_16: t_16_117 <= 30
 demand_17: t_17_117 + t_17_12 + t_17_13 + t_17_15 <= 120
 demand_18: t_18_117 + t_18_19 <= 138
 demand_19: t_19_117 + t_19_18 <= 212
 demand_20: t_20_117 + t_20_21 + t_20_23 <= 227
 demand_21: t_21_117 + t_21_22 + t_21_23 <= 265
 demand_22: t_22_117 + t_22_20 + t_22_21 + t_22_23 <= 66
 demand_23: t_23_117 + t_23_20 + t_23_21 + t_23_22 <= 187
 demand_24: t_24_117 + t_24_26 + t_24_28 + t_24_31 + t_24_33 + t_24_34
   <= 165
 demand_25: t_25_117 + t_25_24 + t_25_28 + t_25_30 + t_25_32 + t_25_34
   <= 143
 demand_26: t_26_117 + t_26_25 + t_26_27 + t_26_29 + t_26_31 <= 119
 demand_27: t_27_117 + t_27_28 + t_27_29 + t_27_30 + t_27_33 + t_27_34
   + t_27_35 <= 164
 demand_28: t_28_117 + t_28_25 + t_28_26 + t_28_27 <= 35
 demand_29: t_29_117 + t_29_24 + t_29_26 + t_29_28 + t_29_30 + t_29_31
   + t_29_33 + t_29_35 <= 176
 demand_30: t_30_117 + t_30_24 + t_30_28 + t_30_29 + t_30_31 + t_30_34
   + t_30_35 <= 161
 demand_31: t_31_117 + t_31_24 + t_31_27 <= 14
 demand_32: t_32_117 + t_32_26 + t_32_29 + t_32_31 + t_32_33 + t_32_35
   <= 121
 demand_33: t_33_117 + t_33_24 + t_33_25 + t_33_28 + t_33_30 + t_33_31
   + t_33_32 <= 17
 demand_34: t_34_117 + t_34_25 + t_34_29 + t_34_30 + t_34_32 + t_34_33
   <= 189
 demand_35: t_35_117 + t_35_27 + t_35_29 + t_35_31 <= 141
 demand_36: t_36_117 + t_36_37 <= 5
 demand_37: t_37_117 <= 414
 demand_38: t_38_117 <= 213
 demand_39: t_39_117 + t_39_40 + t_39_42 <= 135
 demand_40: t_40_117 + t_40_41 + t_40_42 <= 71
 demand_41: t_41_117 + t_41_40 <= 36
 demand_42: t_42_117 + t_42_43 <= 196
 demand_43: t_43_117 <= 301
 demand_44: t_44_117 + t_44_39 + t_44_43 <= 179
 demand_45: t_45_117 + t_45_46 <= 91
 demand_46: t_46_117 <= 328
 demand_47: t_47_117 + t_47_48 <= 288
 demand_48: t_48_117 <= 2
 demand_49: t_49_117 <= 99
 demand_50: t_50_117 <= 214
 demand_51: t_51_117 <= 76
 demand_52: t_52_117 <= 88
 demand_53: t_53_117 <= 217
 demand_54: t_54_117 + t_54_53 <= 247
 demand_55: t_55_117 + t_55_56 <= 166
 demand_56: t_56_117 <= 302
 demand_57: t_57_117 + t_57_58 <= 41
 demand_58: t_58_117 + t_58_57 <= 309
 demand_59: t_59_117 <= 213
 demand_60: t_60_117 <= 99
 demand_61: t_61_117 <= 88
 demand_62: t_62_117 <= 64
 demand_63: t_63_117 + t_63_64 <= 148
 demand_64: t_64_117 <= 117
 demand_65: t_65_117 <= 106
 demand_66: t_66_117 + t_66_67 <= 72
 demand_67: t_67_117 <= 86
 demand_68: t_68_117 <= 106
 demand_69: t_69_117 <= 76
 demand_70: t_70_117 + t_70_69 <= 79
 demand_71: t_71_117 <= 154
 demand_72: t_72_117 + t_72_73 <= 100
 demand_73: t_73_117 <= 181
 demand_74: t_74_117 + t_74_73 <= 49
 demand_75: t_75_117 <= 376
 demand_76: t_76_117 <= 88
 demand_77: t_77_117 <= 106
 demand_78: t_78_117 <= 60
 demand_79: t_79_117 <= 98
 demand_80: t_80_117 <= 190
 demand_81: t_81_117 + t_81_106 <= 99
 demand_82: t_82_117 + t_82_81 + t_82_83 <= 218
 demand_83: t_83_117 + t_83_80 + t_83_81 + t_83_82 <= 67
 demand_84: t_84_117 <= 106
 demand_85: t_85_117 + t_85_86 <= 94
 demand_86: t_86_117 <= 166
 demand_87: t_87_117 + t_87_88 <= 71
 demand_88: t_88_117 <= 84
 demand_89: t_89_117 <= 152
 demand_90: t_90_117 + t_90_115 <= 83
 demand_91: t_91_117 <= 154
 demand_92: t_92_117 <= 158
 demand_93: t_93_117 + t_93_92 <= 102
 demand_94: t_94_117 <= 418
 demand_95: t_95_117 <= 396
 demand_96: t_96_117 <= 168
 demand_97: t_97_117 <= 168
 demand_98: t_98_117 <= 108
 demand_99: t_99_117 <= 117
 demand_100: t_100_117 <= 54
 demand_101: t_101_117 <= 273
 demand_102: t_102_117 <= 81
 demand_103: t_103_117 <= 16
 demand_104: t_104_117 <= 190
 demand_105: t_105_117 <= 18
 demand_106: t_106_117 + t_106_80 + t_106_83 <= 170
 demand_107: t_107_117 <= 69
 demand_108: t_108_117 <= 145
 demand_109: t_109_117 <= 13
 demand_110: t_110_117 <= 16
 demand_111: t_111_117 <= 54
 demand_112: t_112_117 <= 18
 demand_113: t_113_117 <= 24
 demand_114: t_114_117 <= 372
 demand_115: t_115_117 + t_115_90 <= 233
 demand_116: t_116_117 <= 598
 demand_117: t_117_117 <= 0
Bounds
End
